Route 1: 0 91 99 9 11 15 59 13 71 40 0
Route 2: 0 57 29 66 76 69 14 83 56 1 12 0
Route 3: 0 80 8 82 10 50 45 0
Route 4: 0 43 90 6 77 26 27 54 35 37 96 0
Route 5: 0 20 72 51 94 33 47 24 79 28 58 49 95 0
Route 6: 0 39 63 55 81 97 93 19 85 52 70 75 68 0
Route 7: 0 36 41 34 18 84 7 73 65 98 61 0
Route 8: 0 48 31 62 88 16 67 0
Route 9: 0 74 5 53 100 64 42 87 32 30 21 0
Route 10: 0 2 89 38 17 4 46 25 23 0
Route 11: 0 78 22 44 3 86 60 92 0
